Ag4
1.0
   1.4555659999999999   -2.5211139999999999    0.0000000000000000
   1.4555659999999999    2.5211139999999999    0.0000000000000000
   0.0000000000000000    0.0000000000000000    9.4637089999999997
Ag
4
direct
   0.0000000000000000    0.0000000000000000    0.0000000000000000 Ag
   0.0000000000000000    0.0000000000000000    0.5000000000000000 Ag
   0.3333330000000000    0.6666670000000000    0.2500000000000000 Ag
   0.6666670000000000    0.3333330000000000    0.7500000000000000 Ag
