M10 Ag4
1.0
   1.4555659999999999   -2.5211139999999999    0.0000000000000000
   1.4555659999999999    2.5211139999999999    0.0000000000000000
   0.0000000000000000    0.0000000000000000    9.4637089999999997
Ag M
4 10
direct
   0.0000000000000000    0.0000000000000000    0.0000000000000000 Ag
   0.0000000000000000    0.0000000000000000    0.5000000000000000 Ag
   0.3333330000000000    0.6666670000000000    0.2500000000000000 Ag
   0.6666670000000000    0.3333330000000000    0.7500000000000000 Ag
   0.3348042800000000    0.6652200000000000    0.7518359900000000 M0+
   0.6652200000000000    0.3348042800000000    0.2518359900000000 M0+
   0.6673785300000000    0.3364747100000000    0.5626900800000000 M0+
   0.6635252900000000    0.3326214700000000    0.9373099200000000 M0+
   0.3326214700000000    0.6635252900000000    0.4373099200000000 M0+
   0.3364747100000000    0.6673785300000000    0.0626900800000000 M0+
   0.9996722200000000    0.9996566099999999    0.3131277800000000 M0+
   0.0003433900000000    0.0003277800000000    0.1868722200000000 M0+
   0.9996566099999999    0.9996722200000000    0.8131277800000000 M0+
   0.0003277800000000    0.0003433900000000    0.6868722200000000 M0+
